; benchmark generated from python API
(set-info :status unknown)
(declare-fun cell_1_1 () Int)
(declare-fun cell_1_3 () Int)
(declare-fun cell_2_6 () Int)
(declare-fun cell_2_8 () Int)
(declare-fun cell_3_4 () Int)
(declare-fun cell_3_8 () Int)
(declare-fun cell_4_6 () Int)
(declare-fun cell_4_9 () Int)
(declare-fun cell_5_1 () Int)
(declare-fun cell_5_9 () Int)
(declare-fun cell_6_3 () Int)
(declare-fun cell_6_4 () Int)
(declare-fun cell_7_2 () Int)
(declare-fun cell_7_5 () Int)
(declare-fun cell_8_2 () Int)
(declare-fun cell_8_7 () Int)
(declare-fun cell_9_5 () Int)
(declare-fun cell_9_7 () Int)
(declare-fun cell_2_1 () Int)
(declare-fun cell_3_1 () Int)
(declare-fun cell_4_1 () Int)
(declare-fun cell_6_1 () Int)
(declare-fun cell_7_1 () Int)
(declare-fun cell_8_1 () Int)
(declare-fun cell_9_1 () Int)
(declare-fun cell_1_2 () Int)
(declare-fun cell_2_2 () Int)
(declare-fun cell_3_2 () Int)
(declare-fun cell_4_2 () Int)
(declare-fun cell_5_2 () Int)
(declare-fun cell_6_2 () Int)
(declare-fun cell_9_2 () Int)
(declare-fun cell_2_3 () Int)
(declare-fun cell_3_3 () Int)
(declare-fun cell_4_3 () Int)
(declare-fun cell_5_3 () Int)
(declare-fun cell_7_3 () Int)
(declare-fun cell_8_3 () Int)
(declare-fun cell_9_3 () Int)
(declare-fun cell_1_4 () Int)
(declare-fun cell_2_4 () Int)
(declare-fun cell_4_4 () Int)
(declare-fun cell_5_4 () Int)
(declare-fun cell_7_4 () Int)
(declare-fun cell_8_4 () Int)
(declare-fun cell_9_4 () Int)
(declare-fun cell_1_5 () Int)
(declare-fun cell_2_5 () Int)
(declare-fun cell_3_5 () Int)
(declare-fun cell_4_5 () Int)
(declare-fun cell_5_5 () Int)
(declare-fun cell_6_5 () Int)
(declare-fun cell_8_5 () Int)
(declare-fun cell_1_6 () Int)
(declare-fun cell_3_6 () Int)
(declare-fun cell_5_6 () Int)
(declare-fun cell_6_6 () Int)
(declare-fun cell_7_6 () Int)
(declare-fun cell_8_6 () Int)
(declare-fun cell_9_6 () Int)
(declare-fun cell_1_7 () Int)
(declare-fun cell_2_7 () Int)
(declare-fun cell_3_7 () Int)
(declare-fun cell_4_7 () Int)
(declare-fun cell_5_7 () Int)
(declare-fun cell_6_7 () Int)
(declare-fun cell_7_7 () Int)
(declare-fun cell_1_8 () Int)
(declare-fun cell_4_8 () Int)
(declare-fun cell_5_8 () Int)
(declare-fun cell_6_8 () Int)
(declare-fun cell_7_8 () Int)
(declare-fun cell_8_8 () Int)
(declare-fun cell_9_8 () Int)
(declare-fun cell_1_9 () Int)
(declare-fun cell_2_9 () Int)
(declare-fun cell_3_9 () Int)
(declare-fun cell_6_9 () Int)
(declare-fun cell_7_9 () Int)
(declare-fun cell_8_9 () Int)
(declare-fun cell_9_9 () Int)
(assert
 (= cell_1_1 1))
(assert
 (= cell_1_3 2))
(assert
 (= cell_2_6 2))
(assert
 (= cell_2_8 1))
(assert
 (= cell_3_4 1))
(assert
 (= cell_3_8 2))
(assert
 (= cell_4_6 1))
(assert
 (= cell_4_9 2))
(assert
 (= cell_5_1 2))
(assert
 (= cell_5_9 1))
(assert
 (= cell_6_3 1))
(assert
 (= cell_6_4 2))
(assert
 (= cell_7_2 2))
(assert
 (= cell_7_5 1))
(assert
 (= cell_8_2 1))
(assert
 (= cell_8_7 2))
(assert
 (= cell_9_5 2))
(assert
 (= cell_9_7 1))
(assert
 (let (($x4391 (= cell_1_1 1)))
 (or $x4391 (= cell_1_1 2) (= cell_1_1 3) (= cell_1_1 4) (= cell_1_1 5) (= cell_1_1 6) (= cell_1_1 7) (= cell_1_1 8) (= cell_1_1 9))))
(assert
 (let (($x1062 (= cell_2_1 9)))
 (let (($x1033 (= cell_2_1 8)))
 (let (($x5232 (= cell_2_1 7)))
 (let (($x3520 (= cell_2_1 6)))
 (let (($x7193 (= cell_2_1 5)))
 (let (($x1976 (= cell_2_1 4)))
 (let (($x8053 (= cell_2_1 3)))
 (let (($x1319 (= cell_2_1 2)))
 (let (($x5693 (= cell_2_1 1)))
 (or $x5693 $x1319 $x8053 $x1976 $x7193 $x3520 $x5232 $x1033 $x1062)))))))))))
(assert
 (let (($x6958 (= cell_3_1 9)))
 (let (($x4554 (= cell_3_1 8)))
 (let (($x9783 (= cell_3_1 7)))
 (let (($x5777 (= cell_3_1 6)))
 (let (($x8329 (= cell_3_1 5)))
 (let (($x3383 (= cell_3_1 4)))
 (let (($x5429 (= cell_3_1 3)))
 (let (($x4336 (= cell_3_1 2)))
 (let (($x4340 (= cell_3_1 1)))
 (or $x4340 $x4336 $x5429 $x3383 $x8329 $x5777 $x9783 $x4554 $x6958)))))))))))
(assert
 (let (($x333 (= cell_4_1 9)))
 (let (($x6884 (= cell_4_1 8)))
 (let (($x7815 (= cell_4_1 7)))
 (let (($x240 (= cell_4_1 6)))
 (let (($x6249 (= cell_4_1 5)))
 (let (($x712 (= cell_4_1 4)))
 (let (($x4411 (= cell_4_1 3)))
 (let (($x246 (= cell_4_1 2)))
 (let (($x6002 (= cell_4_1 1)))
 (or $x6002 $x246 $x4411 $x712 $x6249 $x240 $x7815 $x6884 $x333)))))))))))
(assert
 (let (($x2843 (= cell_5_1 2)))
 (or (= cell_5_1 1) $x2843 (= cell_5_1 3) (= cell_5_1 4) (= cell_5_1 5) (= cell_5_1 6) (= cell_5_1 7) (= cell_5_1 8) (= cell_5_1 9))))
(assert
 (let (($x732 (= cell_6_1 9)))
 (let (($x1730 (= cell_6_1 8)))
 (let (($x1158 (= cell_6_1 7)))
 (let (($x1367 (= cell_6_1 6)))
 (let (($x6866 (= cell_6_1 5)))
 (let (($x324 (= cell_6_1 4)))
 (let (($x7120 (= cell_6_1 3)))
 (let (($x6462 (= cell_6_1 2)))
 (let (($x5666 (= cell_6_1 1)))
 (or $x5666 $x6462 $x7120 $x324 $x6866 $x1367 $x1158 $x1730 $x732)))))))))))
(assert
 (let (($x644 (= cell_7_1 9)))
 (let (($x2013 (= cell_7_1 8)))
 (let (($x3450 (= cell_7_1 7)))
 (let (($x1283 (= cell_7_1 6)))
 (let (($x6398 (= cell_7_1 5)))
 (let (($x4349 (= cell_7_1 4)))
 (let (($x1280 (= cell_7_1 3)))
 (let (($x3195 (= cell_7_1 2)))
 (let (($x3723 (= cell_7_1 1)))
 (or $x3723 $x3195 $x1280 $x4349 $x6398 $x1283 $x3450 $x2013 $x644)))))))))))
(assert
 (let (($x1627 (= cell_8_1 9)))
 (let (($x9496 (= cell_8_1 8)))
 (let (($x9092 (= cell_8_1 7)))
 (let (($x7490 (= cell_8_1 6)))
 (let (($x2179 (= cell_8_1 5)))
 (let (($x3937 (= cell_8_1 4)))
 (let (($x1242 (= cell_8_1 3)))
 (let (($x20 (= cell_8_1 2)))
 (let (($x6061 (= cell_8_1 1)))
 (or $x6061 $x20 $x1242 $x3937 $x2179 $x7490 $x9092 $x9496 $x1627)))))))))))
(assert
 (let (($x3970 (= cell_9_1 9)))
 (let (($x8924 (= cell_9_1 8)))
 (let (($x5071 (= cell_9_1 7)))
 (let (($x2464 (= cell_9_1 6)))
 (let (($x4117 (= cell_9_1 5)))
 (let (($x7337 (= cell_9_1 4)))
 (let (($x505 (= cell_9_1 3)))
 (let (($x244 (= cell_9_1 2)))
 (let (($x645 (= cell_9_1 1)))
 (or $x645 $x244 $x505 $x7337 $x4117 $x2464 $x5071 $x8924 $x3970)))))))))))
(assert
 (let (($x10035 (= cell_1_2 9)))
 (let (($x5261 (= cell_1_2 8)))
 (let (($x2627 (= cell_1_2 7)))
 (let (($x5209 (= cell_1_2 6)))
 (let (($x7251 (= cell_1_2 5)))
 (let (($x4414 (= cell_1_2 4)))
 (let (($x7079 (= cell_1_2 3)))
 (let (($x3288 (= cell_1_2 2)))
 (let (($x8227 (= cell_1_2 1)))
 (or $x8227 $x3288 $x7079 $x4414 $x7251 $x5209 $x2627 $x5261 $x10035)))))))))))
(assert
 (let (($x694 (= cell_2_2 9)))
 (let (($x9381 (= cell_2_2 8)))
 (let (($x3365 (= cell_2_2 7)))
 (let (($x5229 (= cell_2_2 6)))
 (let (($x9159 (= cell_2_2 5)))
 (let (($x4571 (= cell_2_2 4)))
 (let (($x6064 (= cell_2_2 3)))
 (let (($x10069 (= cell_2_2 2)))
 (let (($x5187 (= cell_2_2 1)))
 (or $x5187 $x10069 $x6064 $x4571 $x9159 $x5229 $x3365 $x9381 $x694)))))))))))
(assert
 (let (($x9286 (= cell_3_2 9)))
 (let (($x5574 (= cell_3_2 8)))
 (let (($x7269 (= cell_3_2 7)))
 (let (($x3418 (= cell_3_2 6)))
 (let (($x8034 (= cell_3_2 5)))
 (let (($x4226 (= cell_3_2 4)))
 (let (($x1146 (= cell_3_2 3)))
 (let (($x6924 (= cell_3_2 2)))
 (let (($x868 (= cell_3_2 1)))
 (or $x868 $x6924 $x1146 $x4226 $x8034 $x3418 $x7269 $x5574 $x9286)))))))))))
(assert
 (let (($x1481 (= cell_4_2 9)))
 (let (($x77 (= cell_4_2 8)))
 (let (($x6611 (= cell_4_2 7)))
 (let (($x8793 (= cell_4_2 6)))
 (let (($x9794 (= cell_4_2 5)))
 (let (($x3349 (= cell_4_2 4)))
 (let (($x470 (= cell_4_2 3)))
 (let (($x4976 (= cell_4_2 2)))
 (let (($x5709 (= cell_4_2 1)))
 (or $x5709 $x4976 $x470 $x3349 $x9794 $x8793 $x6611 $x77 $x1481)))))))))))
(assert
 (let (($x851 (= cell_5_2 9)))
 (let (($x5467 (= cell_5_2 8)))
 (let (($x4566 (= cell_5_2 7)))
 (let (($x2704 (= cell_5_2 6)))
 (let (($x10241 (= cell_5_2 5)))
 (let (($x1597 (= cell_5_2 4)))
 (let (($x2309 (= cell_5_2 3)))
 (let (($x7665 (= cell_5_2 2)))
 (let (($x2396 (= cell_5_2 1)))
 (or $x2396 $x7665 $x2309 $x1597 $x10241 $x2704 $x4566 $x5467 $x851)))))))))))
(assert
 (let (($x1185 (= cell_6_2 9)))
 (let (($x4588 (= cell_6_2 8)))
 (let (($x1733 (= cell_6_2 7)))
 (let (($x7999 (= cell_6_2 6)))
 (let (($x7924 (= cell_6_2 5)))
 (let (($x4264 (= cell_6_2 4)))
 (let (($x5915 (= cell_6_2 3)))
 (let (($x7240 (= cell_6_2 2)))
 (let (($x7005 (= cell_6_2 1)))
 (or $x7005 $x7240 $x5915 $x4264 $x7924 $x7999 $x1733 $x4588 $x1185)))))))))))
(assert
 (let (($x3801 (= cell_7_2 2)))
 (or (= cell_7_2 1) $x3801 (= cell_7_2 3) (= cell_7_2 4) (= cell_7_2 5) (= cell_7_2 6) (= cell_7_2 7) (= cell_7_2 8) (= cell_7_2 9))))
(assert
 (let (($x8010 (= cell_8_2 1)))
 (or $x8010 (= cell_8_2 2) (= cell_8_2 3) (= cell_8_2 4) (= cell_8_2 5) (= cell_8_2 6) (= cell_8_2 7) (= cell_8_2 8) (= cell_8_2 9))))
(assert
 (let (($x3947 (= cell_9_2 9)))
 (let (($x2472 (= cell_9_2 8)))
 (let (($x4448 (= cell_9_2 7)))
 (let (($x1805 (= cell_9_2 6)))
 (let (($x4906 (= cell_9_2 5)))
 (let (($x1609 (= cell_9_2 4)))
 (let (($x6279 (= cell_9_2 3)))
 (let (($x2290 (= cell_9_2 2)))
 (let (($x6655 (= cell_9_2 1)))
 (or $x6655 $x2290 $x6279 $x1609 $x4906 $x1805 $x4448 $x2472 $x3947)))))))))))
(assert
 (let (($x3170 (= cell_1_3 2)))
 (or (= cell_1_3 1) $x3170 (= cell_1_3 3) (= cell_1_3 4) (= cell_1_3 5) (= cell_1_3 6) (= cell_1_3 7) (= cell_1_3 8) (= cell_1_3 9))))
(assert
 (let (($x8524 (= cell_2_3 9)))
 (let (($x7338 (= cell_2_3 8)))
 (let (($x2665 (= cell_2_3 7)))
 (let (($x5333 (= cell_2_3 6)))
 (let (($x536 (= cell_2_3 5)))
 (let (($x6050 (= cell_2_3 4)))
 (let (($x6288 (= cell_2_3 3)))
 (let (($x9328 (= cell_2_3 2)))
 (let (($x1790 (= cell_2_3 1)))
 (or $x1790 $x9328 $x6288 $x6050 $x536 $x5333 $x2665 $x7338 $x8524)))))))))))
(assert
 (let (($x940 (= cell_3_3 9)))
 (let (($x3353 (= cell_3_3 8)))
 (let (($x4991 (= cell_3_3 7)))
 (let (($x1844 (= cell_3_3 6)))
 (let (($x4808 (= cell_3_3 5)))
 (let (($x8456 (= cell_3_3 4)))
 (let (($x6126 (= cell_3_3 3)))
 (let (($x5301 (= cell_3_3 2)))
 (let (($x2950 (= cell_3_3 1)))
 (or $x2950 $x5301 $x6126 $x8456 $x4808 $x1844 $x4991 $x3353 $x940)))))))))))
(assert
 (let (($x9125 (= cell_4_3 9)))
 (let (($x7677 (= cell_4_3 8)))
 (let (($x4353 (= cell_4_3 7)))
 (let (($x4992 (= cell_4_3 6)))
 (let (($x1720 (= cell_4_3 5)))
 (let (($x4116 (= cell_4_3 4)))
 (let (($x7170 (= cell_4_3 3)))
 (let (($x8689 (= cell_4_3 2)))
 (let (($x4620 (= cell_4_3 1)))
 (or $x4620 $x8689 $x7170 $x4116 $x1720 $x4992 $x4353 $x7677 $x9125)))))))))))
(assert
 (let (($x8702 (= cell_5_3 9)))
 (let (($x2273 (= cell_5_3 8)))
 (let (($x3745 (= cell_5_3 7)))
 (let (($x2973 (= cell_5_3 6)))
 (let (($x9501 (= cell_5_3 5)))
 (let (($x5421 (= cell_5_3 4)))
 (let (($x7279 (= cell_5_3 3)))
 (let (($x6803 (= cell_5_3 2)))
 (let (($x6436 (= cell_5_3 1)))
 (or $x6436 $x6803 $x7279 $x5421 $x9501 $x2973 $x3745 $x2273 $x8702)))))))))))
(assert
 (let (($x2338 (= cell_6_3 1)))
 (or $x2338 (= cell_6_3 2) (= cell_6_3 3) (= cell_6_3 4) (= cell_6_3 5) (= cell_6_3 6) (= cell_6_3 7) (= cell_6_3 8) (= cell_6_3 9))))
(assert
 (let (($x6467 (= cell_7_3 9)))
 (let (($x7845 (= cell_7_3 8)))
 (let (($x6179 (= cell_7_3 7)))
 (let (($x5677 (= cell_7_3 6)))
 (let (($x814 (= cell_7_3 5)))
 (let (($x4542 (= cell_7_3 4)))
 (let (($x2258 (= cell_7_3 3)))
 (let (($x6975 (= cell_7_3 2)))
 (let (($x4496 (= cell_7_3 1)))
 (or $x4496 $x6975 $x2258 $x4542 $x814 $x5677 $x6179 $x7845 $x6467)))))))))))
(assert
 (let (($x7430 (= cell_8_3 9)))
 (let (($x9508 (= cell_8_3 8)))
 (let (($x7257 (= cell_8_3 7)))
 (let (($x3092 (= cell_8_3 6)))
 (let (($x1568 (= cell_8_3 5)))
 (let (($x3757 (= cell_8_3 4)))
 (let (($x6091 (= cell_8_3 3)))
 (let (($x5743 (= cell_8_3 2)))
 (let (($x6957 (= cell_8_3 1)))
 (or $x6957 $x5743 $x6091 $x3757 $x1568 $x3092 $x7257 $x9508 $x7430)))))))))))
(assert
 (let (($x920 (= cell_9_3 9)))
 (let (($x3169 (= cell_9_3 8)))
 (let (($x83 (= cell_9_3 7)))
 (let (($x8127 (= cell_9_3 6)))
 (let (($x9779 (= cell_9_3 5)))
 (let (($x9805 (= cell_9_3 4)))
 (let (($x2708 (= cell_9_3 3)))
 (let (($x4752 (= cell_9_3 2)))
 (let (($x3201 (= cell_9_3 1)))
 (or $x3201 $x4752 $x2708 $x9805 $x9779 $x8127 $x83 $x3169 $x920)))))))))))
(assert
 (let (($x4931 (= cell_1_4 9)))
 (let (($x5669 (= cell_1_4 8)))
 (let (($x7373 (= cell_1_4 7)))
 (let (($x4649 (= cell_1_4 6)))
 (let (($x6560 (= cell_1_4 5)))
 (let (($x8083 (= cell_1_4 4)))
 (let (($x6742 (= cell_1_4 3)))
 (let (($x4681 (= cell_1_4 2)))
 (let (($x3997 (= cell_1_4 1)))
 (or $x3997 $x4681 $x6742 $x8083 $x6560 $x4649 $x7373 $x5669 $x4931)))))))))))
(assert
 (let (($x2697 (= cell_2_4 9)))
 (let (($x5241 (= cell_2_4 8)))
 (let (($x7255 (= cell_2_4 7)))
 (let (($x3336 (= cell_2_4 6)))
 (let (($x8383 (= cell_2_4 5)))
 (let (($x441 (= cell_2_4 4)))
 (let (($x3283 (= cell_2_4 3)))
 (let (($x5239 (= cell_2_4 2)))
 (let (($x1427 (= cell_2_4 1)))
 (or $x1427 $x5239 $x3283 $x441 $x8383 $x3336 $x7255 $x5241 $x2697)))))))))))
(assert
 (let (($x7656 (= cell_3_4 1)))
 (or $x7656 (= cell_3_4 2) (= cell_3_4 3) (= cell_3_4 4) (= cell_3_4 5) (= cell_3_4 6) (= cell_3_4 7) (= cell_3_4 8) (= cell_3_4 9))))
(assert
 (let (($x7800 (= cell_4_4 9)))
 (let (($x6297 (= cell_4_4 8)))
 (let (($x4800 (= cell_4_4 7)))
 (let (($x5591 (= cell_4_4 6)))
 (let (($x709 (= cell_4_4 5)))
 (let (($x7088 (= cell_4_4 4)))
 (let (($x3849 (= cell_4_4 3)))
 (let (($x3054 (= cell_4_4 2)))
 (let (($x7555 (= cell_4_4 1)))
 (or $x7555 $x3054 $x3849 $x7088 $x709 $x5591 $x4800 $x6297 $x7800)))))))))))
(assert
 (let (($x1037 (= cell_5_4 9)))
 (let (($x5108 (= cell_5_4 8)))
 (let (($x2057 (= cell_5_4 7)))
 (let (($x2533 (= cell_5_4 6)))
 (let (($x1586 (= cell_5_4 5)))
 (let (($x221 (= cell_5_4 4)))
 (let (($x1449 (= cell_5_4 3)))
 (let (($x6233 (= cell_5_4 2)))
 (let (($x5767 (= cell_5_4 1)))
 (or $x5767 $x6233 $x1449 $x221 $x1586 $x2533 $x2057 $x5108 $x1037)))))))))))
(assert
 (let (($x7972 (= cell_6_4 2)))
 (or (= cell_6_4 1) $x7972 (= cell_6_4 3) (= cell_6_4 4) (= cell_6_4 5) (= cell_6_4 6) (= cell_6_4 7) (= cell_6_4 8) (= cell_6_4 9))))
(assert
 (let (($x7899 (= cell_7_4 9)))
 (let (($x2970 (= cell_7_4 8)))
 (let (($x7558 (= cell_7_4 7)))
 (let (($x7424 (= cell_7_4 6)))
 (let (($x1947 (= cell_7_4 5)))
 (let (($x5237 (= cell_7_4 4)))
 (let (($x9000 (= cell_7_4 3)))
 (let (($x7605 (= cell_7_4 2)))
 (let (($x6111 (= cell_7_4 1)))
 (or $x6111 $x7605 $x9000 $x5237 $x1947 $x7424 $x7558 $x2970 $x7899)))))))))))
(assert
 (let (($x5788 (= cell_8_4 9)))
 (let (($x6887 (= cell_8_4 8)))
 (let (($x6261 (= cell_8_4 7)))
 (let (($x4892 (= cell_8_4 6)))
 (let (($x27 (= cell_8_4 5)))
 (let (($x10265 (= cell_8_4 4)))
 (let (($x3928 (= cell_8_4 3)))
 (let (($x10128 (= cell_8_4 2)))
 (let (($x7862 (= cell_8_4 1)))
 (or $x7862 $x10128 $x3928 $x10265 $x27 $x4892 $x6261 $x6887 $x5788)))))))))))
(assert
 (let (($x3355 (= cell_9_4 9)))
 (let (($x8116 (= cell_9_4 8)))
 (let (($x2145 (= cell_9_4 7)))
 (let (($x7121 (= cell_9_4 6)))
 (let (($x9535 (= cell_9_4 5)))
 (let (($x3653 (= cell_9_4 4)))
 (let (($x1204 (= cell_9_4 3)))
 (let (($x7765 (= cell_9_4 2)))
 (let (($x8777 (= cell_9_4 1)))
 (or $x8777 $x7765 $x1204 $x3653 $x9535 $x7121 $x2145 $x8116 $x3355)))))))))))
(assert
 (let (($x6125 (= cell_1_5 9)))
 (let (($x7510 (= cell_1_5 8)))
 (let (($x6542 (= cell_1_5 7)))
 (let (($x8326 (= cell_1_5 6)))
 (let (($x7884 (= cell_1_5 5)))
 (let (($x395 (= cell_1_5 4)))
 (let (($x9814 (= cell_1_5 3)))
 (let (($x7795 (= cell_1_5 2)))
 (let (($x8725 (= cell_1_5 1)))
 (or $x8725 $x7795 $x9814 $x395 $x7884 $x8326 $x6542 $x7510 $x6125)))))))))))
(assert
 (let (($x4865 (= cell_2_5 9)))
 (let (($x3317 (= cell_2_5 8)))
 (let (($x6404 (= cell_2_5 7)))
 (let (($x187 (= cell_2_5 6)))
 (let (($x9233 (= cell_2_5 5)))
 (let (($x3113 (= cell_2_5 4)))
 (let (($x1442 (= cell_2_5 3)))
 (let (($x6465 (= cell_2_5 2)))
 (let (($x9806 (= cell_2_5 1)))
 (or $x9806 $x6465 $x1442 $x3113 $x9233 $x187 $x6404 $x3317 $x4865)))))))))))
(assert
 (let (($x3456 (= cell_3_5 9)))
 (let (($x7091 (= cell_3_5 8)))
 (let (($x9556 (= cell_3_5 7)))
 (let (($x8019 (= cell_3_5 6)))
 (let (($x3635 (= cell_3_5 5)))
 (let (($x4729 (= cell_3_5 4)))
 (let (($x9490 (= cell_3_5 3)))
 (let (($x5005 (= cell_3_5 2)))
 (let (($x6747 (= cell_3_5 1)))
 (or $x6747 $x5005 $x9490 $x4729 $x3635 $x8019 $x9556 $x7091 $x3456)))))))))))
(assert
 (let (($x5702 (= cell_4_5 9)))
 (let (($x2887 (= cell_4_5 8)))
 (let (($x9434 (= cell_4_5 7)))
 (let (($x1916 (= cell_4_5 6)))
 (let (($x5674 (= cell_4_5 5)))
 (let (($x1295 (= cell_4_5 4)))
 (let (($x3168 (= cell_4_5 3)))
 (let (($x4860 (= cell_4_5 2)))
 (let (($x7073 (= cell_4_5 1)))
 (or $x7073 $x4860 $x3168 $x1295 $x5674 $x1916 $x9434 $x2887 $x5702)))))))))))
(assert
 (let (($x2166 (= cell_5_5 9)))
 (let (($x3683 (= cell_5_5 8)))
 (let (($x1492 (= cell_5_5 7)))
 (let (($x9816 (= cell_5_5 6)))
 (let (($x4292 (= cell_5_5 5)))
 (let (($x5607 (= cell_5_5 4)))
 (let (($x1431 (= cell_5_5 3)))
 (let (($x7659 (= cell_5_5 2)))
 (let (($x4105 (= cell_5_5 1)))
 (or $x4105 $x7659 $x1431 $x5607 $x4292 $x9816 $x1492 $x3683 $x2166)))))))))))
(assert
 (let (($x4614 (= cell_6_5 9)))
 (let (($x9882 (= cell_6_5 8)))
 (let (($x9408 (= cell_6_5 7)))
 (let (($x3986 (= cell_6_5 6)))
 (let (($x169 (= cell_6_5 5)))
 (let (($x3177 (= cell_6_5 4)))
 (let (($x6315 (= cell_6_5 3)))
 (let (($x8735 (= cell_6_5 2)))
 (let (($x4481 (= cell_6_5 1)))
 (or $x4481 $x8735 $x6315 $x3177 $x169 $x3986 $x9408 $x9882 $x4614)))))))))))
(assert
 (let (($x662 (= cell_7_5 1)))
 (or $x662 (= cell_7_5 2) (= cell_7_5 3) (= cell_7_5 4) (= cell_7_5 5) (= cell_7_5 6) (= cell_7_5 7) (= cell_7_5 8) (= cell_7_5 9))))
(assert
 (let (($x4606 (= cell_8_5 9)))
 (let (($x9287 (= cell_8_5 8)))
 (let (($x1649 (= cell_8_5 7)))
 (let (($x5083 (= cell_8_5 6)))
 (let (($x2994 (= cell_8_5 5)))
 (let (($x9581 (= cell_8_5 4)))
 (let (($x9634 (= cell_8_5 3)))
 (let (($x54 (= cell_8_5 2)))
 (let (($x8489 (= cell_8_5 1)))
 (or $x8489 $x54 $x9634 $x9581 $x2994 $x5083 $x1649 $x9287 $x4606)))))))))))
(assert
 (let (($x10034 (= cell_9_5 2)))
 (or (= cell_9_5 1) $x10034 (= cell_9_5 3) (= cell_9_5 4) (= cell_9_5 5) (= cell_9_5 6) (= cell_9_5 7) (= cell_9_5 8) (= cell_9_5 9))))
(assert
 (let (($x9022 (= cell_1_6 9)))
 (let (($x6517 (= cell_1_6 8)))
 (let (($x7802 (= cell_1_6 7)))
 (let (($x1028 (= cell_1_6 6)))
 (let (($x3647 (= cell_1_6 5)))
 (let (($x1434 (= cell_1_6 4)))
 (let (($x6130 (= cell_1_6 3)))
 (let (($x5874 (= cell_1_6 2)))
 (let (($x421 (= cell_1_6 1)))
 (or $x421 $x5874 $x6130 $x1434 $x3647 $x1028 $x7802 $x6517 $x9022)))))))))))
(assert
 (let (($x155 (= cell_2_6 2)))
 (or (= cell_2_6 1) $x155 (= cell_2_6 3) (= cell_2_6 4) (= cell_2_6 5) (= cell_2_6 6) (= cell_2_6 7) (= cell_2_6 8) (= cell_2_6 9))))
(assert
 (let (($x7747 (= cell_3_6 9)))
 (let (($x5869 (= cell_3_6 8)))
 (let (($x6128 (= cell_3_6 7)))
 (let (($x10047 (= cell_3_6 6)))
 (let (($x4467 (= cell_3_6 5)))
 (let (($x4897 (= cell_3_6 4)))
 (let (($x8081 (= cell_3_6 3)))
 (let (($x4303 (= cell_3_6 2)))
 (let (($x4487 (= cell_3_6 1)))
 (or $x4487 $x4303 $x8081 $x4897 $x4467 $x10047 $x6128 $x5869 $x7747)))))))))))
(assert
 (let (($x1827 (= cell_4_6 1)))
 (or $x1827 (= cell_4_6 2) (= cell_4_6 3) (= cell_4_6 4) (= cell_4_6 5) (= cell_4_6 6) (= cell_4_6 7) (= cell_4_6 8) (= cell_4_6 9))))
(assert
 (let (($x25 (= cell_5_6 9)))
 (let (($x5013 (= cell_5_6 8)))
 (let (($x8106 (= cell_5_6 7)))
 (let (($x5548 (= cell_5_6 6)))
 (let (($x6065 (= cell_5_6 5)))
 (let (($x927 (= cell_5_6 4)))
 (let (($x55 (= cell_5_6 3)))
 (let (($x5746 (= cell_5_6 2)))
 (let (($x2608 (= cell_5_6 1)))
 (or $x2608 $x5746 $x55 $x927 $x6065 $x5548 $x8106 $x5013 $x25)))))))))))
(assert
 (let (($x9054 (= cell_6_6 2)))
 (let (($x7505 (= cell_6_6 1)))
 (or $x7505 $x9054 (= cell_6_6 3) (= cell_6_6 4) (= cell_6_6 5) (= cell_6_6 6) (= cell_6_6 7) (= cell_6_6 8) (= cell_6_6 9)))))
(assert
 (let (($x17 (= cell_7_6 9)))
 (let (($x5672 (= cell_7_6 8)))
 (let (($x969 (= cell_7_6 7)))
 (let (($x958 (= cell_7_6 6)))
 (let (($x1935 (= cell_7_6 5)))
 (let (($x2894 (= cell_7_6 4)))
 (let (($x6635 (= cell_7_6 3)))
 (let (($x3008 (= cell_7_6 2)))
 (let (($x8393 (= cell_7_6 1)))
 (or $x8393 $x3008 $x6635 $x2894 $x1935 $x958 $x969 $x5672 $x17)))))))))))
(assert
 (let (($x7614 (= cell_8_6 9)))
 (let (($x2799 (= cell_8_6 8)))
 (let (($x3802 (= cell_8_6 7)))
 (let (($x7297 (= cell_8_6 6)))
 (let (($x313 (= cell_8_6 5)))
 (let (($x358 (= cell_8_6 4)))
 (let (($x6705 (= cell_8_6 3)))
 (let (($x4822 (= cell_8_6 2)))
 (let (($x6904 (= cell_8_6 1)))
 (or $x6904 $x4822 $x6705 $x358 $x313 $x7297 $x3802 $x2799 $x7614)))))))))))
(assert
 (let (($x9312 (= cell_9_6 9)))
 (let (($x1228 (= cell_9_6 8)))
 (let (($x9105 (= cell_9_6 7)))
 (let (($x1414 (= cell_9_6 6)))
 (let (($x6783 (= cell_9_6 5)))
 (let (($x8590 (= cell_9_6 4)))
 (let (($x4098 (= cell_9_6 3)))
 (let (($x385 (= cell_9_6 2)))
 (let (($x8954 (= cell_9_6 1)))
 (or $x8954 $x385 $x4098 $x8590 $x6783 $x1414 $x9105 $x1228 $x9312)))))))))))
(assert
 (let (($x2432 (= cell_1_7 9)))
 (let (($x10009 (= cell_1_7 8)))
 (let (($x6039 (= cell_1_7 7)))
 (let (($x2993 (= cell_1_7 6)))
 (let (($x10115 (= cell_1_7 5)))
 (let (($x3953 (= cell_1_7 4)))
 (let (($x10200 (= cell_1_7 3)))
 (let (($x1159 (= cell_1_7 2)))
 (let (($x8185 (= cell_1_7 1)))
 (or $x8185 $x1159 $x10200 $x3953 $x10115 $x2993 $x6039 $x10009 $x2432)))))))))))
(assert
 (let (($x6429 (= cell_2_7 9)))
 (let (($x5768 (= cell_2_7 8)))
 (let (($x9140 (= cell_2_7 7)))
 (let (($x4128 (= cell_2_7 6)))
 (let (($x3770 (= cell_2_7 5)))
 (let (($x8906 (= cell_2_7 4)))
 (let (($x6859 (= cell_2_7 3)))
 (let (($x7721 (= cell_2_7 2)))
 (let (($x6739 (= cell_2_7 1)))
 (or $x6739 $x7721 $x6859 $x8906 $x3770 $x4128 $x9140 $x5768 $x6429)))))))))))
(assert
 (let (($x4532 (= cell_3_7 9)))
 (let (($x7900 (= cell_3_7 8)))
 (let (($x8874 (= cell_3_7 7)))
 (let (($x2090 (= cell_3_7 6)))
 (let (($x1893 (= cell_3_7 5)))
 (let (($x9128 (= cell_3_7 4)))
 (let (($x9585 (= cell_3_7 3)))
 (let (($x7231 (= cell_3_7 2)))
 (let (($x10308 (= cell_3_7 1)))
 (or $x10308 $x7231 $x9585 $x9128 $x1893 $x2090 $x8874 $x7900 $x4532)))))))))))
(assert
 (let (($x9517 (= cell_4_7 9)))
 (let (($x2433 (= cell_4_7 8)))
 (let (($x5712 (= cell_4_7 7)))
 (let (($x1026 (= cell_4_7 6)))
 (let (($x10094 (= cell_4_7 5)))
 (let (($x5315 (= cell_4_7 4)))
 (let (($x7501 (= cell_4_7 3)))
 (let (($x733 (= cell_4_7 2)))
 (let (($x4498 (= cell_4_7 1)))
 (or $x4498 $x733 $x7501 $x5315 $x10094 $x1026 $x5712 $x2433 $x9517)))))))))))
(assert
 (let (($x5404 (= cell_5_7 9)))
 (let (($x2092 (= cell_5_7 8)))
 (let (($x7875 (= cell_5_7 7)))
 (let (($x10220 (= cell_5_7 6)))
 (let (($x5762 (= cell_5_7 5)))
 (let (($x9351 (= cell_5_7 4)))
 (let (($x8848 (= cell_5_7 3)))
 (let (($x2004 (= cell_5_7 2)))
 (let (($x4587 (= cell_5_7 1)))
 (or $x4587 $x2004 $x8848 $x9351 $x5762 $x10220 $x7875 $x2092 $x5404)))))))))))
(assert
 (let (($x5771 (= cell_6_7 9)))
 (let (($x185 (= cell_6_7 8)))
 (let (($x3308 (= cell_6_7 7)))
 (let (($x2380 (= cell_6_7 6)))
 (let (($x4689 (= cell_6_7 5)))
 (let (($x5769 (= cell_6_7 4)))
 (let (($x3831 (= cell_6_7 3)))
 (let (($x4500 (= cell_6_7 2)))
 (let (($x3208 (= cell_6_7 1)))
 (or $x3208 $x4500 $x3831 $x5769 $x4689 $x2380 $x3308 $x185 $x5771)))))))))))
(assert
 (let (($x6407 (= cell_7_7 9)))
 (let (($x6807 (= cell_7_7 8)))
 (let (($x2484 (= cell_7_7 7)))
 (let (($x7886 (= cell_7_7 6)))
 (let (($x2386 (= cell_7_7 5)))
 (let (($x1969 (= cell_7_7 4)))
 (let (($x5577 (= cell_7_7 3)))
 (let (($x1099 (= cell_7_7 2)))
 (let (($x6658 (= cell_7_7 1)))
 (or $x6658 $x1099 $x5577 $x1969 $x2386 $x7886 $x2484 $x6807 $x6407)))))))))))
(assert
 (let (($x8780 (= cell_8_7 2)))
 (or (= cell_8_7 1) $x8780 (= cell_8_7 3) (= cell_8_7 4) (= cell_8_7 5) (= cell_8_7 6) (= cell_8_7 7) (= cell_8_7 8) (= cell_8_7 9))))
(assert
 (let (($x3237 (= cell_9_7 1)))
 (or $x3237 (= cell_9_7 2) (= cell_9_7 3) (= cell_9_7 4) (= cell_9_7 5) (= cell_9_7 6) (= cell_9_7 7) (= cell_9_7 8) (= cell_9_7 9))))
(assert
 (let (($x2823 (= cell_1_8 9)))
 (let (($x37 (= cell_1_8 8)))
 (let (($x1053 (= cell_1_8 7)))
 (let (($x9069 (= cell_1_8 6)))
 (let (($x4229 (= cell_1_8 5)))
 (let (($x5377 (= cell_1_8 4)))
 (let (($x1951 (= cell_1_8 3)))
 (let (($x5630 (= cell_1_8 2)))
 (let (($x1989 (= cell_1_8 1)))
 (or $x1989 $x5630 $x1951 $x5377 $x4229 $x9069 $x1053 $x37 $x2823)))))))))))
(assert
 (let (($x4836 (= cell_2_8 1)))
 (or $x4836 (= cell_2_8 2) (= cell_2_8 3) (= cell_2_8 4) (= cell_2_8 5) (= cell_2_8 6) (= cell_2_8 7) (= cell_2_8 8) (= cell_2_8 9))))
(assert
 (let (($x5606 (= cell_3_8 2)))
 (or (= cell_3_8 1) $x5606 (= cell_3_8 3) (= cell_3_8 4) (= cell_3_8 5) (= cell_3_8 6) (= cell_3_8 7) (= cell_3_8 8) (= cell_3_8 9))))
(assert
 (let (($x6521 (= cell_4_8 9)))
 (let (($x3954 (= cell_4_8 8)))
 (let (($x5849 (= cell_4_8 7)))
 (let (($x2510 (= cell_4_8 6)))
 (let (($x1695 (= cell_4_8 5)))
 (let (($x785 (= cell_4_8 4)))
 (let (($x3394 (= cell_4_8 3)))
 (let (($x4560 (= cell_4_8 2)))
 (let (($x7305 (= cell_4_8 1)))
 (or $x7305 $x4560 $x3394 $x785 $x1695 $x2510 $x5849 $x3954 $x6521)))))))))))
(assert
 (let (($x4167 (= cell_5_8 9)))
 (let (($x8287 (= cell_5_8 8)))
 (let (($x5246 (= cell_5_8 7)))
 (let (($x1835 (= cell_5_8 6)))
 (let (($x9318 (= cell_5_8 5)))
 (let (($x3252 (= cell_5_8 4)))
 (let (($x3691 (= cell_5_8 3)))
 (let (($x7807 (= cell_5_8 2)))
 (let (($x2349 (= cell_5_8 1)))
 (or $x2349 $x7807 $x3691 $x3252 $x9318 $x1835 $x5246 $x8287 $x4167)))))))))))
(assert
 (let (($x2958 (= cell_6_8 2)))
 (let (($x8309 (= cell_6_8 1)))
 (or $x8309 $x2958 (= cell_6_8 3) (= cell_6_8 4) (= cell_6_8 5) (= cell_6_8 6) (= cell_6_8 7) (= cell_6_8 8) (= cell_6_8 9)))))
(assert
 (let (($x1669 (= cell_7_8 9)))
 (let (($x2084 (= cell_7_8 8)))
 (let (($x2334 (= cell_7_8 7)))
 (let (($x6929 (= cell_7_8 6)))
 (let (($x2132 (= cell_7_8 5)))
 (let (($x1208 (= cell_7_8 4)))
 (let (($x2508 (= cell_7_8 3)))
 (let (($x2264 (= cell_7_8 2)))
 (let (($x6711 (= cell_7_8 1)))
 (or $x6711 $x2264 $x2508 $x1208 $x2132 $x6929 $x2334 $x2084 $x1669)))))))))))
(assert
 (let (($x4855 (= cell_8_8 9)))
 (let (($x3517 (= cell_8_8 8)))
 (let (($x5100 (= cell_8_8 7)))
 (let (($x8256 (= cell_8_8 6)))
 (let (($x1150 (= cell_8_8 5)))
 (let (($x1761 (= cell_8_8 4)))
 (let (($x5641 (= cell_8_8 3)))
 (let (($x5202 (= cell_8_8 2)))
 (let (($x1499 (= cell_8_8 1)))
 (or $x1499 $x5202 $x5641 $x1761 $x1150 $x8256 $x5100 $x3517 $x4855)))))))))))
(assert
 (let (($x1831 (= cell_9_8 2)))
 (let (($x5863 (= cell_9_8 1)))
 (or $x5863 $x1831 (= cell_9_8 3) (= cell_9_8 4) (= cell_9_8 5) (= cell_9_8 6) (= cell_9_8 7) (= cell_9_8 8) (= cell_9_8 9)))))
(assert
 (let (($x1463 (= cell_1_9 9)))
 (let (($x8657 (= cell_1_9 8)))
 (let (($x3090 (= cell_1_9 7)))
 (let (($x2180 (= cell_1_9 6)))
 (let (($x6410 (= cell_1_9 5)))
 (let (($x1758 (= cell_1_9 4)))
 (let (($x9430 (= cell_1_9 3)))
 (let (($x5281 (= cell_1_9 2)))
 (let (($x500 (= cell_1_9 1)))
 (or $x500 $x5281 $x9430 $x1758 $x6410 $x2180 $x3090 $x8657 $x1463)))))))))))
(assert
 (let (($x8601 (= cell_2_9 9)))
 (let (($x9204 (= cell_2_9 8)))
 (let (($x1305 (= cell_2_9 7)))
 (let (($x9804 (= cell_2_9 6)))
 (let (($x4266 (= cell_2_9 5)))
 (let (($x106 (= cell_2_9 4)))
 (let (($x3778 (= cell_2_9 3)))
 (let (($x7263 (= cell_2_9 2)))
 (let (($x1172 (= cell_2_9 1)))
 (or $x1172 $x7263 $x3778 $x106 $x4266 $x9804 $x1305 $x9204 $x8601)))))))))))
(assert
 (let (($x806 (= cell_3_9 9)))
 (let (($x7348 (= cell_3_9 8)))
 (let (($x4307 (= cell_3_9 7)))
 (let (($x2412 (= cell_3_9 6)))
 (let (($x1540 (= cell_3_9 5)))
 (let (($x7222 (= cell_3_9 4)))
 (let (($x7948 (= cell_3_9 3)))
 (let (($x4075 (= cell_3_9 2)))
 (let (($x5120 (= cell_3_9 1)))
 (or $x5120 $x4075 $x7948 $x7222 $x1540 $x2412 $x4307 $x7348 $x806)))))))))))
(assert
 (let (($x8887 (= cell_4_9 2)))
 (or (= cell_4_9 1) $x8887 (= cell_4_9 3) (= cell_4_9 4) (= cell_4_9 5) (= cell_4_9 6) (= cell_4_9 7) (= cell_4_9 8) (= cell_4_9 9))))
(assert
 (let (($x9347 (= cell_5_9 1)))
 (or $x9347 (= cell_5_9 2) (= cell_5_9 3) (= cell_5_9 4) (= cell_5_9 5) (= cell_5_9 6) (= cell_5_9 7) (= cell_5_9 8) (= cell_5_9 9))))
(assert
 (let (($x6805 (= cell_6_9 2)))
 (let (($x8449 (= cell_6_9 1)))
 (or $x8449 $x6805 (= cell_6_9 3) (= cell_6_9 4) (= cell_6_9 5) (= cell_6_9 6) (= cell_6_9 7) (= cell_6_9 8) (= cell_6_9 9)))))
(assert
 (let (($x5047 (= cell_7_9 9)))
 (let (($x2750 (= cell_7_9 8)))
 (let (($x159 (= cell_7_9 7)))
 (let (($x9696 (= cell_7_9 6)))
 (let (($x803 (= cell_7_9 5)))
 (let (($x3094 (= cell_7_9 4)))
 (let (($x6148 (= cell_7_9 3)))
 (let (($x1677 (= cell_7_9 2)))
 (let (($x8340 (= cell_7_9 1)))
 (or $x8340 $x1677 $x6148 $x3094 $x803 $x9696 $x159 $x2750 $x5047)))))))))))
(assert
 (let (($x7722 (= cell_8_9 9)))
 (let (($x138 (= cell_8_9 8)))
 (let (($x10225 (= cell_8_9 7)))
 (let (($x3257 (= cell_8_9 6)))
 (let (($x5609 (= cell_8_9 5)))
 (let (($x9024 (= cell_8_9 4)))
 (let (($x5010 (= cell_8_9 3)))
 (let (($x3298 (= cell_8_9 2)))
 (let (($x3982 (= cell_8_9 1)))
 (or $x3982 $x3298 $x5010 $x9024 $x5609 $x3257 $x10225 $x138 $x7722)))))))))))
(assert
 (let (($x7584 (= cell_9_9 2)))
 (let (($x7969 (= cell_9_9 1)))
 (or $x7969 $x7584 (= cell_9_9 3) (= cell_9_9 4) (= cell_9_9 5) (= cell_9_9 6) (= cell_9_9 7) (= cell_9_9 8) (= cell_9_9 9)))))
(assert
 (and (distinct cell_1_1 cell_1_2 cell_1_3 cell_1_4 cell_1_5 cell_1_6 cell_1_7 cell_1_8 cell_1_9) true))
(assert
 (and (distinct cell_2_1 cell_2_2 cell_2_3 cell_2_4 cell_2_5 cell_2_6 cell_2_7 cell_2_8 cell_2_9) true))
(assert
 (and (distinct cell_3_1 cell_3_2 cell_3_3 cell_3_4 cell_3_5 cell_3_6 cell_3_7 cell_3_8 cell_3_9) true))
(assert
 (and (distinct cell_4_1 cell_4_2 cell_4_3 cell_4_4 cell_4_5 cell_4_6 cell_4_7 cell_4_8 cell_4_9) true))
(assert
 (and (distinct cell_5_1 cell_5_2 cell_5_3 cell_5_4 cell_5_5 cell_5_6 cell_5_7 cell_5_8 cell_5_9) true))
(assert
 (and (distinct cell_6_1 cell_6_2 cell_6_3 cell_6_4 cell_6_5 cell_6_6 cell_6_7 cell_6_8 cell_6_9) true))
(assert
 (and (distinct cell_7_1 cell_7_2 cell_7_3 cell_7_4 cell_7_5 cell_7_6 cell_7_7 cell_7_8 cell_7_9) true))
(assert
 (and (distinct cell_8_1 cell_8_2 cell_8_3 cell_8_4 cell_8_5 cell_8_6 cell_8_7 cell_8_8 cell_8_9) true))
(assert
 (and (distinct cell_9_1 cell_9_2 cell_9_3 cell_9_4 cell_9_5 cell_9_6 cell_9_7 cell_9_8 cell_9_9) true))
(assert
 (and (distinct cell_1_1 cell_2_1 cell_3_1 cell_4_1 cell_5_1 cell_6_1 cell_7_1 cell_8_1 cell_9_1) true))
(assert
 (and (distinct cell_1_2 cell_2_2 cell_3_2 cell_4_2 cell_5_2 cell_6_2 cell_7_2 cell_8_2 cell_9_2) true))
(assert
 (and (distinct cell_1_3 cell_2_3 cell_3_3 cell_4_3 cell_5_3 cell_6_3 cell_7_3 cell_8_3 cell_9_3) true))
(assert
 (and (distinct cell_1_4 cell_2_4 cell_3_4 cell_4_4 cell_5_4 cell_6_4 cell_7_4 cell_8_4 cell_9_4) true))
(assert
 (and (distinct cell_1_5 cell_2_5 cell_3_5 cell_4_5 cell_5_5 cell_6_5 cell_7_5 cell_8_5 cell_9_5) true))
(assert
 (and (distinct cell_1_6 cell_2_6 cell_3_6 cell_4_6 cell_5_6 cell_6_6 cell_7_6 cell_8_6 cell_9_6) true))
(assert
 (and (distinct cell_1_7 cell_2_7 cell_3_7 cell_4_7 cell_5_7 cell_6_7 cell_7_7 cell_8_7 cell_9_7) true))
(assert
 (and (distinct cell_1_8 cell_2_8 cell_3_8 cell_4_8 cell_5_8 cell_6_8 cell_7_8 cell_8_8 cell_9_8) true))
(assert
 (and (distinct cell_1_9 cell_2_9 cell_3_9 cell_4_9 cell_5_9 cell_6_9 cell_7_9 cell_8_9 cell_9_9) true))
(assert
 (and (distinct cell_1_1 cell_1_2 cell_1_3 cell_2_1 cell_2_2 cell_2_3 cell_3_1 cell_3_2 cell_3_3) true))
(assert
 (and (distinct cell_1_4 cell_1_5 cell_1_6 cell_2_4 cell_2_5 cell_2_6 cell_3_4 cell_3_5 cell_3_6) true))
(assert
 (and (distinct cell_1_7 cell_1_8 cell_1_9 cell_2_7 cell_2_8 cell_2_9 cell_3_7 cell_3_8 cell_3_9) true))
(assert
 (and (distinct cell_4_1 cell_4_2 cell_4_3 cell_5_1 cell_5_2 cell_5_3 cell_6_1 cell_6_2 cell_6_3) true))
(assert
 (and (distinct cell_4_4 cell_4_5 cell_4_6 cell_5_4 cell_5_5 cell_5_6 cell_6_4 cell_6_5 cell_6_6) true))
(assert
 (and (distinct cell_4_7 cell_4_8 cell_4_9 cell_5_7 cell_5_8 cell_5_9 cell_6_7 cell_6_8 cell_6_9) true))
(assert
 (and (distinct cell_7_1 cell_7_2 cell_7_3 cell_8_1 cell_8_2 cell_8_3 cell_9_1 cell_9_2 cell_9_3) true))
(assert
 (and (distinct cell_7_4 cell_7_5 cell_7_6 cell_8_4 cell_8_5 cell_8_6 cell_9_4 cell_9_5 cell_9_6) true))
(assert
 (and (distinct cell_7_7 cell_7_8 cell_7_9 cell_8_7 cell_8_8 cell_8_9 cell_9_7 cell_9_8 cell_9_9) true))
(assert
 (let (($x10127 (and (distinct cell_5_9 cell_6_8 cell_7_7 cell_8_6) true)))
 (let (($x6192 (and (distinct cell_2_9 cell_3_8 cell_4_7 cell_5_6 cell_6_5 cell_7_4 cell_8_3 cell_9_2) true)))
 (let (($x3046 (and (distinct cell_1_8 cell_2_7 cell_3_6 cell_4_5 cell_5_4 cell_6_3 cell_7_2 cell_8_1) true)))
 (let (($x3497 (and (distinct cell_1_5 cell_2_4 cell_3_3 cell_4_2) true)))
 (let (($x7159 (and (distinct cell_5_1 cell_6_2 cell_7_3 cell_8_4) true)))
 (let (($x7499 (and (distinct cell_2_1 cell_3_2 cell_4_3 cell_5_4 cell_6_5 cell_7_6 cell_8_7 cell_9_8) true)))
 (let (($x8161 (and (distinct cell_1_2 cell_2_3 cell_3_4 cell_4_5 cell_5_6 cell_6_7 cell_7_8 cell_8_9) true)))
 (let (($x4192 (and (distinct cell_1_5 cell_2_6 cell_3_7 cell_4_8) true)))
 (and $x4192 $x8161 $x7499 $x7159 $x3497 $x3046 $x6192 $x10127))))))))))
(assert
 (= cell_1_2 3))
(check-sat)
